\ENCODING=ISO-8859-1
\Problem name: ilog.cplex

Maximize
 obj: 760 x(0)#0 + 792 x(1)#1 + 952 x(2)#2 + 679 x(3)#3 + 487 x(4)#4
      + 529 x(5)#5 + 835 x(6)#6 + 764 x(7)#7 + 696 x(8)#8 + 535 x(9)#9
      + 887 x(10)#10 + 746 x(11)#11 + 643 x(12)#12 + 830 x(13)#13
      + 1117 x(14)#14 + 409 x(15)#15 + 538 x(16)#16 + 797 x(17)#17
      + 582 x(18)#18 + 1011 x(19)#19 + 600 x(20)#20 + 929 x(21)#21
      + 678 x(22)#22 + 959 x(23)#23 + 586 x(24)#24 + 512 x(25)#25
      + 945 x(26)#26 + 849 x(27)#27 + 946 x(28)#28 + 869 x(29)#29
      + 768 x(30)#30 + 784 x(31)#31 + 757 x(32)#32 + 607 x(33)#33
      + 744 x(34)#34 + 555 x(35)#35 + 563 x(36)#36 + 897 x(37)#37
      + 878 x(38)#38 + 758 x(39)#39 + 1067 x(40)#40 + 936 x(41)#41
      + 359 x(42)#42 + 490 x(43)#43 + 558 x(44)#44 + 790 x(45)#45
      + 852 x(46)#46 + 887 x(47)#47 + 636 x(48)#48 + 497 x(49)#49
      + 726 x(50)#50 + 1011 x(51)#51 + 795 x(52)#52 + 1075 x(53)#53
      + 559 x(54)#54 + 805 x(55)#55 + 748 x(56)#56 + 562 x(57)#57
      + 500 x(58)#58 + 290 x(59)#59 + 745 x(60)#60 + 826 x(61)#61
      + 796 x(62)#62 + 910 x(63)#63 + 598 x(64)#64 + 775 x(65)#65
      + 430 x(66)#66 + 601 x(67)#67 + 1056 x(68)#68 + 752 x(69)#69
      + 906 x(70)#70 + 461 x(71)#71 + 592 x(72)#72 + 823 x(73)#73
      + 922 x(74)#74 + 557 x(75)#75 + 752 x(76)#76 + 899 x(77)#77
      + 847 x(78)#78 + 1053 x(79)#79 + 564 x(80)#80 + 887 x(81)#81
      + 1014 x(82)#82 + 284 x(83)#83 + 557 x(84)#84 + 924 x(85)#85
      + 742 x(86)#86 + 712 x(87)#87 + 797 x(88)#88 + 872 x(89)#89
      + 1041 x(90)#90 + 1117 x(91)#91 + 777 x(92)#92 + 950 x(93)#93
      + 685 x(94)#94 + 1063 x(95)#95 + 533 x(96)#96 + 833 x(97)#97
      + 649 x(98)#98 + 694 x(99)#99 + 769 x(100)#100 + 731 x(101)#101
      + 414 x(102)#102 + 587 x(103)#103 + 822 x(104)#104 + 851 x(105)#105
      + 863 x(106)#106 + 444 x(107)#107 + 1060 x(108)#108 + 1083 x(109)#109
      + 780 x(110)#110 + 542 x(111)#111 + 805 x(112)#112 + 890 x(113)#113
      + 1058 x(114)#114 + 650 x(115)#115 + 929 x(116)#116 + 793 x(117)#117
      + 855 x(118)#118 + 665 x(119)#119 + 961 x(120)#120 + 1028 x(121)#121
      + 410 x(122)#122 + 500 x(123)#123 + 907 x(124)#124 + 732 x(125)#125
      + 1151 x(126)#126 + 782 x(127)#127 + 937 x(128)#128 + 646 x(129)#129
      + 773 x(130)#130 + 740 x(131)#131 + 623 x(132)#132 + 744 x(133)#133
      + 974 x(134)#134 + 521 x(135)#135 + 705 x(136)#136 + 1040 x(137)#137
      + 1229 x(138)#138 + 795 x(139)#139 + 423 x(140)#140 + 473 x(141)#141
      + 650 x(142)#142 + 722 x(143)#143 + 617 x(144)#144 + 761 x(145)#145
      + 422 x(146)#146 + 583 x(147)#147 + 738 x(148)#148 + 758 x(149)#149
      + 571 x(150)#150 + 794 x(151)#151 + 741 x(152)#152 + 755 x(153)#153
      + 472 x(154)#154 + 847 x(155)#155 + 952 x(156)#156 + 735 x(157)#157
      + 944 x(158)#158 + 1012 x(159)#159 + 780 x(160)#160 + 700 x(161)#161
      + 1124 x(162)#162 + 511 x(163)#163 + 725 x(164)#164 + 830 x(165)#165
      + 1085 x(166)#166 + 523 x(167)#167 + 662 x(168)#168 + 708 x(169)#169
      + 856 x(170)#170 + 397 x(171)#171 + 710 x(172)#172 + 814 x(173)#173
      + 896 x(174)#174 + 733 x(175)#175 + 867 x(176)#176 + 528 x(177)#177
      + 741 x(178)#178 + 558 x(179)#179 + 818 x(180)#180 + 808 x(181)#181
      + 482 x(182)#182 + 884 x(183)#183 + 1109 x(184)#184 + 997 x(185)#185
      + 762 x(186)#186 + 1148 x(187)#187 + 761 x(188)#188 + 784 x(189)#189
      + 1102 x(190)#190 + 621 x(191)#191 + 803 x(192)#192 + 800 x(193)#193
      + 553 x(194)#194 + 922 x(195)#195 + 903 x(196)#196 + 1136 x(197)#197
      + 978 x(198)#198 + 985 x(199)#199 + 712 x(200)#200 + 262 x(201)#201
      + 590 x(202)#202 + 716 x(203)#203 + 713 x(204)#204 + 658 x(205)#205
      + 503 x(206)#206 + 868 x(207)#207 + 980 x(208)#208 + 933 x(209)#209
      + 1131 x(210)#210 + 458 x(211)#211 + 823 x(212)#212 + 991 x(213)#213
      + 714 x(214)#214 + 614 x(215)#215 + 685 x(216)#216 + 990 x(217)#217
      + 961 x(218)#218 + 642 x(219)#219 + 278 x(220)#220 + 974 x(221)#221
      + 810 x(222)#222 + 1059 x(223)#223 + 676 x(224)#224 + 1141 x(225)#225
      + 685 x(226)#226 + 604 x(227)#227 + 687 x(228)#228 + 935 x(229)#229
      + 809 x(230)#230 + 528 x(231)#231 + 945 x(232)#232 + 1235 x(233)#233
      + 624 x(234)#234 + 803 x(235)#235 + 510 x(236)#236 + 566 x(237)#237
      + 824 x(238)#238 + 695 x(239)#239 + 1320 x(240)#240 + 808 x(241)#241
      + 512 x(242)#242 + 470 x(243)#243 + 537 x(244)#244 + 506 x(245)#245
      + 895 x(246)#246 + 782 x(247)#247 + 726 x(248)#248 + 739 x(249)#249
Subject To
 c1: 925 x(0)#0 + 41 x(1)#1 + 936 x(2)#2 + 781 x(3)#3 + 652 x(4)#4 + 247 x(5)#5
     + 490 x(6)#6 + 996 x(7)#7 + 955 x(8)#8 + 175 x(9)#9 + 432 x(10)#10
     + 644 x(11)#11 + 514 x(12)#12 + 561 x(13)#13 + 966 x(14)#14 + 267 x(15)#15
     + 827 x(16)#16 + 479 x(17)#17 + 141 x(18)#18 + 822 x(19)#19 + 795 x(20)#20
     + 881 x(21)#21 + 67 x(22)#22 + 246 x(23)#23 + 689 x(24)#24 + 176 x(25)#25
     + 817 x(26)#26 + 884 x(27)#27 + 496 x(28)#28 + 333 x(29)#29 + 544 x(30)#30
     + 765 x(31)#31 + 172 x(32)#32 + 359 x(33)#33 + 955 x(34)#34 + 166 x(35)#35
     + 197 x(36)#36 + 799 x(37)#37 + 307 x(38)#38 + 647 x(39)#39 + 959 x(40)#40
     + 555 x(41)#41 + 893 x(42)#42 + 495 x(43)#43 + 246 x(44)#44 + 988 x(45)#45
     + 436 x(46)#46 + 907 x(47)#47 + 817 x(48)#48 + 289 x(49)#49 + 189 x(50)#50
     + 661 x(51)#51 + 918 x(52)#52 + 167 x(53)#53 + 398 x(54)#54 + 422 x(55)#55
     + 527 x(56)#56 + 455 x(57)#57 + 302 x(58)#58 + 332 x(59)#59 + 111 x(60)#60
     + 502 x(61)#61 + 948 x(62)#62 + 714 x(63)#63 + 472 x(64)#64 + 227 x(65)#65
     + 6 x(66)#66 + 26 x(67)#67 + 855 x(68)#68 + 594 x(69)#69 + 840 x(70)#70
     + 259 x(71)#71 + 998 x(72)#72 + 395 x(73)#73 + 184 x(74)#74 + 531 x(75)#75
     + 807 x(76)#76 + 938 x(77)#77 + 611 x(78)#78 + 778 x(79)#79 + 49 x(80)#80
     + 156 x(81)#81 + 978 x(82)#82 + 60 x(83)#83 + 37 x(84)#84 + 958 x(85)#85
     + 266 x(86)#86 + 589 x(87)#87 + 173 x(88)#88 + 798 x(89)#89 + 926 x(90)#90
     + 873 x(91)#91 + 633 x(92)#92 + 582 x(93)#93 + 469 x(94)#94 + 467 x(95)#95
     + 889 x(96)#96 + 988 x(97)#97 + 995 x(98)#98 + 313 x(99)#99
     + 833 x(100)#100 + 82 x(101)#101 + 504 x(102)#102 + 114 x(103)#103
     + 808 x(104)#104 + 502 x(105)#105 + 450 x(106)#106 + 695 x(107)#107
     + 831 x(108)#108 + 689 x(109)#109 + 668 x(110)#110 + 290 x(111)#111
     + 810 x(112)#112 + 161 x(113)#113 + 700 x(114)#114 + 458 x(115)#115
     + 552 x(116)#116 + 709 x(117)#117 + 253 x(118)#118 + 321 x(119)#119
     + 666 x(120)#120 + 827 x(121)#121 + 273 x(122)#122 + 323 x(123)#123
     + 37 x(124)#124 + 780 x(125)#125 + 371 x(126)#126 + 343 x(127)#127
     + 863 x(128)#128 + 618 x(129)#129 + 400 x(130)#130 + 723 x(131)#131
     + 724 x(132)#132 + 31 x(133)#133 + 980 x(134)#134 + 850 x(135)#135
     + 502 x(136)#136 + 549 x(137)#137 + 947 x(138)#138 + 909 x(139)#139
     + 405 x(140)#140 + 380 x(141)#141 + 118 x(142)#142 + 210 x(143)#143
     + 156 x(144)#144 + 711 x(145)#145 + 194 x(146)#146 + 38 x(147)#147
     + 319 x(148)#148 + 965 x(149)#149 + 135 x(150)#150 + 859 x(151)#151
     + 886 x(152)#152 + 33 x(153)#153 + 502 x(154)#154 + 938 x(155)#155
     + 755 x(156)#156 + 88 x(157)#157 + 344 x(158)#158 + 560 x(159)#159
     + 371 x(160)#160 + 798 x(161)#161 + 886 x(162)#162 + 696 x(163)#163
     + 110 x(164)#164 + 456 x(165)#165 + 979 x(166)#166 + 468 x(167)#167
     + 494 x(168)#168 + 142 x(169)#169 + 811 x(170)#170 + 299 x(171)#171
     + 538 x(172)#172 + 857 x(173)#173 + 666 x(174)#174 + 897 x(175)#175
     + 519 x(176)#176 + 454 x(177)#177 + 645 x(178)#178 + 498 x(179)#179
     + 883 x(180)#180 + 749 x(181)#181 + 26 x(182)#182 + 964 x(183)#183
     + 553 x(184)#184 + 373 x(185)#185 + 494 x(186)#186 + 486 x(187)#187
     + 676 x(188)#188 + 283 x(189)#189 + 874 x(190)#190 + 156 x(191)#191
     + 228 x(192)#192 + 839 x(193)#193 + 692 x(194)#194 + 416 x(195)#195
     + 265 x(196)#196 + 693 x(197)#197 + 174 x(198)#198 + 328 x(199)#199
     + 506 x(200)#200 + 60 x(201)#201 + 825 x(202)#202 + 507 x(203)#203
     + 460 x(204)#204 + 824 x(205)#205 + 280 x(206)#206 + 841 x(207)#207
     + 100 x(208)#208 + 903 x(209)#209 + 885 x(210)#210 + 972 x(211)#211
     + 475 x(212)#212 + 174 x(213)#213 + 460 x(214)#214 + 290 x(215)#215
     + 156 x(216)#216 + 977 x(217)#217 + 169 x(218)#218 + 479 x(219)#219
     + 70 x(220)#220 + 693 x(221)#221 + 713 x(222)#222 + 765 x(223)#223
     + 90 x(224)#224 + 990 x(225)#225 + 475 x(226)#226 + 971 x(227)#227
     + 148 x(228)#228 + 327 x(229)#229 + 805 x(230)#230 + 615 x(231)#231
     + 97 x(232)#232 + 245 x(233)#233 + 119 x(234)#234 + 611 x(235)#235
     + 93 x(236)#236 + 233 x(237)#237 + 496 x(238)#238 + 352 x(239)#239
     + 937 x(240)#240 + 274 x(241)#241 + 393 x(242)#242 + 573 x(243)#243
     + 783 x(244)#244 + 367 x(245)#245 + 310 x(246)#246 + 854 x(247)#247
     + 557 x(248)#248 + 69 x(249)#249 <= 98957
 c2: 398 x(0)#0 + 333 x(1)#1 + 739 x(2)#2 + 661 x(3)#3 + 575 x(4)#4
     + 377 x(5)#5 + 613 x(6)#6 + 898 x(7)#7 + 539 x(8)#8 + 497 x(9)#9
     + 639 x(10)#10 + 29 x(11)#11 + 72 x(12)#12 + 407 x(13)#13 + 131 x(14)#14
     + 41 x(15)#15 + 2 x(16)#16 + 436 x(17)#17 + 276 x(18)#18 + 358 x(19)#19
     + 273 x(20)#20 + 335 x(21)#21 + 144 x(22)#22 + 413 x(23)#23 + 531 x(24)#24
     + 926 x(25)#25 + 183 x(26)#26 + 240 x(27)#27 + 407 x(28)#28 + 496 x(29)#29
     + 158 x(30)#30 + 112 x(31)#31 + 398 x(32)#32 + 744 x(33)#33 + 402 x(34)#34
     + 851 x(35)#35 + 506 x(36)#36 + 114 x(37)#37 + 597 x(38)#38 + 379 x(39)#39
     + 299 x(40)#40 + 338 x(41)#41 + 378 x(42)#42 + 488 x(43)#43 + 206 x(44)#44
     + 73 x(45)#45 + 81 x(46)#46 + 728 x(47)#47 + 133 x(48)#48 + 783 x(49)#49
     + 841 x(50)#50 + 716 x(51)#51 + 140 x(52)#52 + 591 x(53)#53 + 904 x(54)#54
     + 339 x(55)#55 + 768 x(56)#56 + 325 x(57)#57 + 739 x(58)#58 + 490 x(59)#59
     + 616 x(60)#60 + 184 x(61)#61 + 198 x(62)#62 + 202 x(63)#63 + 33 x(64)#64
     + 152 x(65)#65 + 163 x(66)#66 + 944 x(67)#67 + 979 x(68)#68 + 150 x(69)#69
     + 379 x(70)#70 + 418 x(71)#71 + 285 x(72)#72 + 46 x(73)#73 + 621 x(74)#74
     + 407 x(75)#75 + 168 x(76)#76 + 645 x(77)#77 + 953 x(78)#78 + 452 x(79)#79
     + 582 x(80)#80 + 194 x(81)#81 + 772 x(82)#82 + 381 x(83)#83 + 353 x(84)#84
     + 974 x(85)#85 + 241 x(86)#86 + 769 x(87)#87 + 995 x(88)#88 + 579 x(89)#89
     + 972 x(90)#90 + 901 x(91)#91 + 761 x(92)#92 + 478 x(93)#93 + 222 x(94)#94
     + 836 x(95)#95 + 46 x(96)#96 + 436 x(97)#97 + 422 x(98)#98 + 403 x(99)#99
     + 33 x(100)#100 + 558 x(101)#101 + 134 x(102)#102 + 167 x(103)#103
     + 207 x(104)#104 + 916 x(105)#105 + 385 x(106)#106 + 346 x(107)#107
     + 718 x(108)#108 + 979 x(109)#109 + 829 x(110)#110 + 826 x(111)#111
     + 766 x(112)#112 + 654 x(113)#113 + 509 x(114)#114 + 513 x(115)#115
     + 431 x(116)#116 + 237 x(117)#117 + 180 x(118)#118 + 522 x(119)#119
     + 674 x(120)#120 + 472 x(121)#121 + 624 x(122)#122 + 735 x(123)#123
     + 770 x(124)#124 + 762 x(125)#125 + 844 x(126)#126 + 445 x(127)#127
     + 831 x(128)#128 + 686 x(129)#129 + 428 x(130)#130 + 781 x(131)#131
     + 205 x(132)#132 + 466 x(133)#133 + 806 x(134)#134 + 177 x(135)#135
     + 121 x(136)#136 + 454 x(137)#137 + 605 x(138)#138 + 578 x(139)#139
     + 111 x(140)#140 + 291 x(141)#141 + 92 x(142)#142 + 100 x(143)#143
     + 748 x(144)#144 + 659 x(145)#145 + 717 x(146)#146 + 750 x(147)#147
     + 159 x(148)#148 + 420 x(149)#149 + 423 x(150)#150 + 883 x(151)#151
     + 222 x(152)#152 + 764 x(153)#153 + 57 x(154)#154 + 811 x(155)#155
     + 458 x(156)#156 + 316 x(157)#157 + 754 x(158)#158 + 862 x(159)#159
     + 889 x(160)#160 + 36 x(161)#161 + 955 x(162)#162 + 341 x(163)#163
     + 759 x(164)#164 + 898 x(165)#165 + 483 x(166)#166 + 168 x(167)#167
     + 964 x(168)#168 + 674 x(169)#169 + 673 x(170)#170 + 463 x(171)#171
     + 332 x(172)#172 + 852 x(173)#173 + 270 x(174)#174 + 458 x(175)#175
     + 9 x(176)#176 + 913 x(177)#177 + 979 x(178)#178 + 287 x(179)#179
     + 585 x(180)#180 + 995 x(181)#181 + 372 x(182)#182 + 774 x(183)#183
     + 631 x(184)#184 + 191 x(185)#185 + 158 x(186)#186 + 262 x(187)#187
     + 746 x(188)#188 + 12 x(189)#189 + 478 x(190)#190 + 854 x(191)#191
     + 607 x(192)#192 + 528 x(193)#193 + 933 x(194)#194 + 203 x(195)#195
     + 991 x(196)#196 + 470 x(197)#197 + 789 x(198)#198 + 797 x(199)#199
     + 88 x(200)#200 + 266 x(201)#201 + 133 x(202)#202 + 376 x(203)#203
     + 397 x(204)#204 + 136 x(205)#205 + 356 x(206)#206 + 482 x(207)#207
     + 605 x(208)#208 + 328 x(209)#209 + 798 x(210)#210 + 97 x(211)#211
     + 252 x(212)#212 + 954 x(213)#213 + 106 x(214)#214 + 51 x(215)#215
     + 76 x(216)#216 + 697 x(217)#217 + 736 x(218)#218 + 242 x(219)#219
     + 281 x(220)#220 + 777 x(221)#221 + 82 x(222)#222 + 822 x(223)#223
     + 247 x(224)#224 + 712 x(225)#225 + 977 x(226)#226 + 736 x(227)#227
     + 460 x(228)#228 + 854 x(229)#229 + 653 x(230)#230 + 583 x(231)#231
     + 957 x(232)#232 + 964 x(233)#233 + 521 x(234)#234 + 245 x(235)#235
     + 585 x(236)#236 + 598 x(237)#237 + 252 x(238)#238 + 159 x(239)#239
     + 776 x(240)#240 + 328 x(241)#241 + 441 x(242)#242 + 247 x(243)#243
     + 201 x(244)#244 + 953 x(245)#245 + 705 x(246)#246 + 969 x(247)#247
     + 310 x(248)#248 + 970 x(249)#249 <= 92395
 c3: 749 x(0)#0 + 919 x(1)#1 + 440 x(2)#2 + 205 x(3)#3 + 237 x(4)#4
     + 101 x(5)#5 + 258 x(6)#6 + 118 x(7)#7 + 160 x(8)#8 + 628 x(9)#9
     + 455 x(10)#10 + 386 x(11)#11 + 73 x(12)#12 + 519 x(13)#13 + 914 x(14)#14
     + 409 x(15)#15 + 830 x(16)#16 + 551 x(17)#17 + 673 x(18)#18 + 894 x(19)#19
     + 400 x(20)#20 + 406 x(21)#21 + 105 x(22)#22 + 313 x(23)#23 + 553 x(24)#24
     + 278 x(25)#25 + 272 x(26)#26 + 240 x(27)#27 + 857 x(28)#28 + 184 x(29)#29
     + 37 x(30)#30 + 674 x(31)#31 + 919 x(32)#32 + 316 x(33)#33 + 399 x(34)#34
     + 711 x(35)#35 + 152 x(36)#36 + 195 x(37)#37 + 896 x(38)#38 + 480 x(39)#39
     + 776 x(40)#40 + 813 x(41)#41 + 64 x(42)#42 + 226 x(43)#43 + 427 x(44)#44
     + 460 x(45)#45 + 184 x(46)#46 + 522 x(47)#47 + 434 x(48)#48 + 253 x(49)#49
     + 701 x(50)#50 + 967 x(51)#51 + 775 x(52)#52 + 546 x(53)#53 + 593 x(54)#54
     + 122 x(55)#55 + 7 x(56)#56 + 56 x(57)#57 + 497 x(58)#58 + 119 x(59)#59
     + 787 x(60)#60 + 57 x(61)#61 + 1000 x(62)#62 + 448 x(63)#63 + 116 x(64)#64
     + 169 x(65)#65 + 62 x(66)#66 + 302 x(67)#67 + 641 x(68)#68 + 241 x(69)#69
     + 600 x(70)#70 + 47 x(71)#71 + 275 x(72)#72 + 318 x(73)#73 + 870 x(74)#74
     + 126 x(75)#75 + 322 x(76)#76 + 734 x(77)#77 + 407 x(78)#78 + 661 x(79)#79
     + 471 x(80)#80 + 936 x(81)#81 + 973 x(82)#82 + 659 x(83)#83 + 729 x(84)#84
     + 832 x(85)#85 + 584 x(86)#86 + 109 x(87)#87 + 132 x(88)#88 + 461 x(89)#89
     + 475 x(90)#90 + 790 x(91)#91 + 325 x(92)#92 + 811 x(93)#93 + 432 x(94)#94
     + 910 x(95)#95 + 670 x(96)#96 + 303 x(97)#97 + 596 x(98)#98 + 116 x(99)#99
     + 522 x(100)#100 + 846 x(101)#101 + 691 x(102)#102 + 507 x(103)#103
     + 559 x(104)#104 + 412 x(105)#105 + 418 x(106)#106 + 197 x(107)#107
     + 279 x(108)#108 + 766 x(109)#109 + 30 x(110)#110 + 699 x(111)#111
     + 228 x(112)#112 + 663 x(113)#113 + 752 x(114)#114 + 864 x(115)#115
     + 919 x(116)#116 + 922 x(117)#117 + 837 x(118)#118 + 833 x(119)#119
     + 175 x(120)#120 + 692 x(121)#121 + 303 x(122)#122 + 44 x(123)#123
     + 609 x(124)#124 + 143 x(125)#125 + 605 x(126)#126 + 651 x(127)#127
     + 365 x(128)#128 + 557 x(129)#129 + 202 x(130)#130 + 343 x(131)#131
     + 522 x(132)#132 + 715 x(133)#133 + 65 x(134)#134 + 60 x(135)#135
     + 758 x(136)#136 + 689 x(137)#137 + 820 x(138)#138 + 913 x(139)#139
     + 48 x(140)#140 + 451 x(141)#141 + 990 x(142)#142 + 948 x(143)#143
     + 218 x(144)#144 + 50 x(145)#145 + 639 x(146)#146 + 375 x(147)#147
     + 535 x(148)#148 + 104 x(149)#149 + 993 x(150)#150 + 829 x(151)#151
     + 72 x(152)#152 + 965 x(153)#153 + 36 x(154)#154 + 35 x(155)#155
     + 78 x(156)#156 + 612 x(157)#157 + 742 x(158)#158 + 470 x(159)#159
     + 671 x(160)#160 + 92 x(161)#161 + 808 x(162)#162 + 72 x(163)#163
     + 137 x(164)#164 + 23 x(165)#165 + 337 x(166)#166 + 578 x(167)#167
     + 152 x(168)#168 + 757 x(169)#169 + 915 x(170)#170 + 337 x(171)#171
     + 527 x(172)#172 + 318 x(173)#173 + 495 x(174)#174 + 464 x(175)#175
     + 871 x(176)#176 + 498 x(177)#177 + 193 x(178)#178 + 41 x(179)#179
     + 379 x(180)#180 + 905 x(181)#181 + 36 x(182)#182 + 379 x(183)#183
     + 519 x(184)#184 + 281 x(185)#185 + 67 x(186)#186 + 737 x(187)#187
     + 780 x(188)#188 + 714 x(189)#189 + 412 x(190)#190 + 681 x(191)#191
     + 518 x(192)#192 + 315 x(193)#193 + 605 x(194)#194 + 984 x(195)#195
     + 935 x(196)#196 + 579 x(197)#197 + 700 x(198)#198 + 213 x(199)#199
     + 11 x(200)#200 + 7 x(201)#201 + 576 x(202)#202 + 892 x(203)#203
     + 379 x(204)#204 + 63 x(205)#205 + 241 x(206)#206 + 47 x(207)#207
     + 845 x(208)#208 + 726 x(209)#209 + 471 x(210)#210 + 372 x(211)#211
     + 322 x(212)#212 + 181 x(213)#213 + 901 x(214)#214 + 737 x(215)#215
     + 61 x(216)#216 + 959 x(217)#217 + 748 x(218)#218 + 256 x(219)#219
     + 532 x(220)#220 + 114 x(221)#221 + 831 x(222)#222 + 802 x(223)#223
     + 984 x(224)#224 + 955 x(225)#225 + 818 x(226)#226 + 349 x(227)#227
     + 789 x(228)#228 + 590 x(229)#229 + 994 x(230)#230 + 557 x(231)#231
     + 992 x(232)#232 + 919 x(233)#233 + 403 x(234)#234 + 828 x(235)#235
     + 644 x(236)#236 + 548 x(237)#237 + 963 x(238)#238 + 937 x(239)#239
     + 947 x(240)#240 + 935 x(241)#241 + 329 x(242)#242 + 169 x(243)#243
     + 540 x(244)#244 + 29 x(245)#245 + 101 x(246)#246 + 600 x(247)#247
     + 769 x(248)#248 + 336 x(249)#249 <= 92576
 c4: 927 x(0)#0 + 518 x(1)#1 + 524 x(2)#2 + 876 x(3)#3 + 327 x(4)#4
     + 330 x(5)#5 + 911 x(6)#6 + 755 x(7)#7 + 631 x(8)#8 + 800 x(9)#9
     + 713 x(10)#10 + 737 x(11)#11 + 938 x(12)#12 + 714 x(13)#13 + 280 x(14)#14
     + 454 x(15)#15 + 259 x(16)#16 + 55 x(17)#17 + 594 x(18)#18 + 807 x(19)#19
     + 350 x(20)#20 + 886 x(21)#21 + 745 x(22)#22 + 948 x(23)#23 + 351 x(24)#24
     + 360 x(25)#25 + 513 x(26)#26 + 408 x(27)#27 + 796 x(28)#28 + 177 x(29)#29
     + 866 x(30)#30 + 531 x(31)#31 + 483 x(32)#32 + 349 x(33)#33 + 486 x(34)#34
     + 230 x(35)#35 + 643 x(36)#36 + 738 x(37)#37 + 290 x(38)#38 + 11 x(39)#39
     + 796 x(40)#40 + 793 x(41)#41 + 189 x(42)#42 + 794 x(43)#43 + 365 x(44)#44
     + 996 x(45)#45 + 674 x(46)#46 + 892 x(47)#47 + 273 x(48)#48 + 6 x(49)#49
     + 181 x(50)#50 + 272 x(51)#51 + 433 x(52)#52 + 854 x(53)#53 + 423 x(54)#54
     + 534 x(55)#55 + 616 x(56)#56 + x(57)#57 + 329 x(58)#58 + 447 x(59)#59
     + 25 x(60)#60 + 650 x(61)#61 + 802 x(62)#62 + 448 x(63)#63 + 793 x(64)#64
     + 627 x(65)#65 + 985 x(66)#66 + 579 x(67)#67 + 404 x(68)#68 + 472 x(69)#69
     + 802 x(70)#70 + 572 x(71)#71 + 24 x(72)#72 + 448 x(73)#73 + 608 x(74)#74
     + 12 x(75)#75 + 59 x(76)#76 + 690 x(77)#77 + 198 x(78)#78 + 295 x(79)#79
     + 605 x(80)#80 + 778 x(81)#81 + 590 x(82)#82 + 78 x(83)#83 + 125 x(84)#84
     + 8 x(85)#85 + 925 x(86)#86 + 84 x(87)#87 + 773 x(88)#88 + 436 x(89)#89
     + 381 x(90)#90 + 209 x(91)#91 + 477 x(92)#92 + 412 x(93)#93 + 177 x(94)#94
     + 80 x(95)#95 + 33 x(96)#96 + 361 x(97)#97 + 357 x(98)#98 + 488 x(99)#99
     + 809 x(100)#100 + 957 x(101)#101 + 117 x(102)#102 + 301 x(103)#103
     + 292 x(104)#104 + 405 x(105)#105 + 898 x(106)#106 + 501 x(107)#107
     + 843 x(108)#108 + 294 x(109)#109 + 101 x(110)#110 + 746 x(111)#111
     + 375 x(112)#112 + 289 x(113)#113 + 611 x(114)#114 + 457 x(115)#115
     + 522 x(116)#116 + 798 x(117)#117 + 116 x(118)#118 + 703 x(119)#119
     + 894 x(120)#120 + 905 x(121)#121 + 364 x(122)#122 + 926 x(123)#123
     + 720 x(124)#124 + 599 x(125)#125 + 813 x(126)#126 + 899 x(127)#127
     + 802 x(128)#128 + 151 x(129)#129 + 851 x(130)#130 + 928 x(131)#131
     + 779 x(132)#132 + 361 x(133)#133 + 829 x(134)#134 + 615 x(135)#135
     + 607 x(136)#136 + 968 x(137)#137 + 524 x(138)#138 + 309 x(139)#139
     + 494 x(140)#140 + 815 x(141)#141 + 549 x(142)#142 + 178 x(143)#143
     + 502 x(144)#144 + 588 x(145)#145 + 110 x(146)#146 + 114 x(147)#147
     + 296 x(148)#148 + 574 x(149)#149 + 315 x(150)#150 + 350 x(151)#151
     + 386 x(152)#152 + 776 x(153)#153 + 582 x(154)#154 + 695 x(155)#155
     + 434 x(156)#156 + 555 x(157)#157 + 992 x(158)#158 + 695 x(159)#159
     + 37 x(160)#160 + 958 x(161)#161 + 945 x(162)#162 + 568 x(163)#163
     + 42 x(164)#164 + 60 x(165)#165 + 681 x(166)#166 + 945 x(167)#167
     + 706 x(168)#168 + 33 x(169)#169 + 324 x(170)#170 + 189 x(171)#171
     + 900 x(172)#172 + 468 x(173)#173 + 632 x(174)#174 + 473 x(175)#175
     + 867 x(176)#176 + 11 x(177)#177 + 255 x(178)#178 + 385 x(179)#179
     + 998 x(180)#180 + 506 x(181)#181 + 530 x(182)#182 + x(183)#183
     + 850 x(184)#184 + 937 x(185)#185 + 875 x(186)#186 + 852 x(187)#187
     + 946 x(188)#188 + 136 x(189)#189 + 680 x(190)#190 + 47 x(191)#191
     + 634 x(192)#192 + 564 x(193)#193 + 265 x(194)#194 + 178 x(195)#195
     + 742 x(196)#196 + 638 x(197)#197 + 945 x(198)#198 + 812 x(199)#199
     + 125 x(200)#200 + 320 x(201)#201 + 444 x(202)#202 + 220 x(203)#203
     + 61 x(204)#204 + 215 x(205)#205 + 429 x(206)#206 + 135 x(207)#207
     + 917 x(208)#208 + 326 x(209)#209 + 52 x(210)#210 + 308 x(211)#211
     + 133 x(212)#212 + 896 x(213)#213 + 689 x(214)#214 + 881 x(215)#215
     + 686 x(216)#216 + 476 x(217)#217 + 155 x(218)#218 + 828 x(219)#219
     + 233 x(220)#220 + 870 x(221)#221 + 767 x(222)#222 + 313 x(223)#223
     + 288 x(224)#224 + 650 x(225)#225 + 434 x(226)#226 + 230 x(227)#227
     + 670 x(228)#228 + 959 x(229)#229 + 277 x(230)#230 + 215 x(231)#231
     + 360 x(232)#232 + 908 x(233)#233 + 563 x(234)#234 + 722 x(235)#235
     + 160 x(236)#236 + 686 x(237)#237 + 940 x(238)#238 + 147 x(239)#239
     + 829 x(240)#240 + 357 x(241)#241 + 582 x(242)#242 + 789 x(243)#243
     + 245 x(244)#244 + 330 x(245)#245 + 944 x(246)#246 + 69 x(247)#247
     + 557 x(248)#248 + 232 x(249)#249 <= 96199
 c5: 175 x(0)#0 + 759 x(1)#1 + 614 x(2)#2 + 797 x(3)#3 + 364 x(4)#4
     + 637 x(5)#5 + 656 x(6)#6 + 952 x(7)#7 + 684 x(8)#8 + 131 x(9)#9
     + 963 x(10)#10 + 327 x(11)#11 + 558 x(12)#12 + 11 x(13)#13 + 938 x(14)#14
     + 7 x(15)#15 + 737 x(16)#16 + 648 x(17)#17 + 190 x(18)#18 + 562 x(19)#19
     + 621 x(20)#20 + 813 x(21)#21 + 507 x(22)#22 + 520 x(23)#23 + 462 x(24)#24
     + 668 x(25)#25 + 597 x(26)#26 + 598 x(27)#27 + 904 x(28)#28 + 894 x(29)#29
     + 88 x(30)#30 + 479 x(31)#31 + 758 x(32)#32 + 182 x(33)#33 + 826 x(34)#34
     + 701 x(35)#35 + 272 x(36)#36 + 715 x(37)#37 + 194 x(38)#38 + 101 x(39)#39
     + 87 x(40)#40 + 921 x(41)#41 + 173 x(42)#42 + 254 x(43)#43 + 586 x(44)#44
     + 767 x(45)#45 + 652 x(46)#46 + 416 x(47)#47 + 791 x(48)#48 + 350 x(49)#49
     + 95 x(50)#50 + 196 x(51)#51 + 616 x(52)#52 + 990 x(53)#53 + 423 x(54)#54
     + 127 x(55)#55 + 147 x(56)#56 + 720 x(57)#57 + 30 x(58)#58 + 5 x(59)#59
     + 864 x(60)#60 + 467 x(61)#61 + 471 x(62)#62 + 544 x(63)#63 + 264 x(64)#64
     + 800 x(65)#65 + 717 x(66)#66 + 38 x(67)#67 + 977 x(68)#68 + 796 x(69)#69
     + 85 x(70)#70 + 787 x(71)#71 + 252 x(72)#72 + 809 x(73)#73 + 731 x(74)#74
     + 532 x(75)#75 + 619 x(76)#76 + 139 x(77)#77 + 22 x(78)#78 + 990 x(79)#79
     + 923 x(80)#80 + 883 x(81)#81 + 162 x(82)#82 + 218 x(83)#83 + 990 x(84)#84
     + 13 x(85)#85 + 8 x(86)#86 + 546 x(87)#87 + 933 x(88)#88 + 586 x(89)#89
     + 264 x(90)#90 + 760 x(91)#91 + 39 x(92)#92 + 989 x(93)#93 + 90 x(94)#94
     + 882 x(95)#95 + 661 x(96)#96 + 485 x(97)#97 + 551 x(98)#98 + 543 x(99)#99
     + 425 x(100)#100 + 376 x(101)#101 + 10 x(102)#102 + 361 x(103)#103
     + 626 x(104)#104 + 170 x(105)#105 + 182 x(106)#106 + 392 x(107)#107
     + 136 x(108)#108 + 568 x(109)#109 + 367 x(110)#110 + 19 x(111)#111
     + 335 x(112)#112 + 935 x(113)#113 + 328 x(114)#114 + 933 x(115)#115
     + 334 x(116)#116 + 843 x(117)#117 + 959 x(118)#118 + 504 x(119)#119
     + 420 x(120)#120 + 609 x(121)#121 + 434 x(122)#122 + 117 x(123)#123
     + 104 x(124)#124 + 139 x(125)#125 + 664 x(126)#126 + 775 x(127)#127
     + 221 x(128)#128 + 743 x(129)#129 + 935 x(130)#130 + 394 x(131)#131
     + 479 x(132)#132 + 270 x(133)#133 + 985 x(134)#134 + 695 x(135)#135
     + 192 x(136)#136 + 781 x(137)#137 + 950 x(138)#138 + 44 x(139)#139
     + 537 x(140)#140 + 45 x(141)#141 + 736 x(142)#142 + 309 x(143)#143
     + 602 x(144)#144 + 131 x(145)#145 + 408 x(146)#146 + 389 x(147)#147
     + 320 x(148)#148 + 383 x(149)#149 + 772 x(150)#150 + 627 x(151)#151
     + 513 x(152)#152 + 301 x(153)#153 + 557 x(154)#154 + 541 x(155)#155
     + 952 x(156)#156 + 917 x(157)#157 + 338 x(158)#158 + 397 x(159)#159
     + 288 x(160)#160 + 547 x(161)#161 + 126 x(162)#162 + 278 x(163)#163
     + 995 x(164)#164 + 846 x(165)#165 + 914 x(166)#166 + 324 x(167)#167
     + 544 x(168)#168 + 121 x(169)#169 + 874 x(170)#170 + 438 x(171)#171
     + 143 x(172)#172 + 43 x(173)#173 + 441 x(174)#174 + 333 x(175)#175
     + 604 x(176)#176 + 726 x(177)#177 + 100 x(178)#178 + 146 x(179)#179
     + 916 x(180)#180 + 162 x(181)#181 + 134 x(182)#182 + 593 x(183)#183
     + 722 x(184)#184 + 807 x(185)#185 + 761 x(186)#186 + 936 x(187)#187
     + 632 x(188)#188 + 340 x(189)#189 + 823 x(190)#190 + 445 x(191)#191
     + 511 x(192)#192 + 971 x(193)#193 + 260 x(194)#194 + 554 x(195)#195
     + 749 x(196)#196 + 953 x(197)#197 + 572 x(198)#198 + 610 x(199)#199
     + 346 x(200)#200 + 302 x(201)#201 + 907 x(202)#202 + 736 x(203)#203
     + 264 x(204)#204 + 657 x(205)#205 + 825 x(206)#206 + 388 x(207)#207
     + 293 x(208)#208 + 681 x(209)#209 + 978 x(210)#210 + 436 x(211)#211
     + 474 x(212)#212 + 955 x(213)#213 + 70 x(214)#214 + 444 x(215)#215
     + 97 x(216)#216 + 438 x(217)#217 + 821 x(218)#218 + 718 x(219)#219
     + 185 x(220)#220 + 512 x(221)#221 + 328 x(222)#222 + 816 x(223)#223
     + 145 x(224)#224 + 326 x(225)#225 + 120 x(226)#226 + 631 x(227)#227
     + 438 x(228)#228 + 294 x(229)#229 + 928 x(230)#230 + 271 x(231)#231
     + 564 x(232)#232 + 837 x(233)#233 + 881 x(234)#234 + 72 x(235)#235
     + 134 x(236)#236 + 464 x(237)#237 + 425 x(238)#238 + 360 x(239)#239
     + 694 x(240)#240 + 587 x(241)#241 + 266 x(242)#242 + 235 x(243)#243
     + 571 x(244)#244 + 322 x(245)#245 + 260 x(246)#246 + 810 x(247)#247
     + 757 x(248)#248 + 211 x(249)#249 <= 94103
Bounds
 0 <= x(0)#0 <= 1
 0 <= x(1)#1 <= 1
 0 <= x(2)#2 <= 1
 0 <= x(3)#3 <= 1
 0 <= x(4)#4 <= 1
 0 <= x(5)#5 <= 1
 0 <= x(6)#6 <= 1
 0 <= x(7)#7 <= 1
 0 <= x(8)#8 <= 1
 0 <= x(9)#9 <= 1
 0 <= x(10)#10 <= 1
 0 <= x(11)#11 <= 1
 0 <= x(12)#12 <= 1
 0 <= x(13)#13 <= 1
 0 <= x(14)#14 <= 1
 0 <= x(15)#15 <= 1
 0 <= x(16)#16 <= 1
 0 <= x(17)#17 <= 1
 0 <= x(18)#18 <= 1
 0 <= x(19)#19 <= 1
 0 <= x(20)#20 <= 1
 0 <= x(21)#21 <= 1
 0 <= x(22)#22 <= 1
 0 <= x(23)#23 <= 1
 0 <= x(24)#24 <= 1
 0 <= x(25)#25 <= 1
 0 <= x(26)#26 <= 1
 0 <= x(27)#27 <= 1
 0 <= x(28)#28 <= 1
 0 <= x(29)#29 <= 1
 0 <= x(30)#30 <= 1
 0 <= x(31)#31 <= 1
 0 <= x(32)#32 <= 1
 0 <= x(33)#33 <= 1
 0 <= x(34)#34 <= 1
 0 <= x(35)#35 <= 1
 0 <= x(36)#36 <= 1
 0 <= x(37)#37 <= 1
 0 <= x(38)#38 <= 1
 0 <= x(39)#39 <= 1
 0 <= x(40)#40 <= 1
 0 <= x(41)#41 <= 1
 0 <= x(42)#42 <= 1
 0 <= x(43)#43 <= 1
 0 <= x(44)#44 <= 1
 0 <= x(45)#45 <= 1
 0 <= x(46)#46 <= 1
 0 <= x(47)#47 <= 1
 0 <= x(48)#48 <= 1
 0 <= x(49)#49 <= 1
 0 <= x(50)#50 <= 1
 0 <= x(51)#51 <= 1
 0 <= x(52)#52 <= 1
 0 <= x(53)#53 <= 1
 0 <= x(54)#54 <= 1
 0 <= x(55)#55 <= 1
 0 <= x(56)#56 <= 1
 0 <= x(57)#57 <= 1
 0 <= x(58)#58 <= 1
 0 <= x(59)#59 <= 1
 0 <= x(60)#60 <= 1
 0 <= x(61)#61 <= 1
 0 <= x(62)#62 <= 1
 0 <= x(63)#63 <= 1
 0 <= x(64)#64 <= 1
 0 <= x(65)#65 <= 1
 0 <= x(66)#66 <= 1
 0 <= x(67)#67 <= 1
 0 <= x(68)#68 <= 1
 0 <= x(69)#69 <= 1
 0 <= x(70)#70 <= 1
 0 <= x(71)#71 <= 1
 0 <= x(72)#72 <= 1
 0 <= x(73)#73 <= 1
 0 <= x(74)#74 <= 1
 0 <= x(75)#75 <= 1
 0 <= x(76)#76 <= 1
 0 <= x(77)#77 <= 1
 0 <= x(78)#78 <= 1
 0 <= x(79)#79 <= 1
 0 <= x(80)#80 <= 1
 0 <= x(81)#81 <= 1
 0 <= x(82)#82 <= 1
 0 <= x(83)#83 <= 1
 0 <= x(84)#84 <= 1
 0 <= x(85)#85 <= 1
 0 <= x(86)#86 <= 1
 0 <= x(87)#87 <= 1
 0 <= x(88)#88 <= 1
 0 <= x(89)#89 <= 1
 0 <= x(90)#90 <= 1
 0 <= x(91)#91 <= 1
 0 <= x(92)#92 <= 1
 0 <= x(93)#93 <= 1
 0 <= x(94)#94 <= 1
 0 <= x(95)#95 <= 1
 0 <= x(96)#96 <= 1
 0 <= x(97)#97 <= 1
 0 <= x(98)#98 <= 1
 0 <= x(99)#99 <= 1
 0 <= x(100)#100 <= 1
 0 <= x(101)#101 <= 1
 0 <= x(102)#102 <= 1
 0 <= x(103)#103 <= 1
 0 <= x(104)#104 <= 1
 0 <= x(105)#105 <= 1
 0 <= x(106)#106 <= 1
 0 <= x(107)#107 <= 1
 0 <= x(108)#108 <= 1
 0 <= x(109)#109 <= 1
 0 <= x(110)#110 <= 1
 0 <= x(111)#111 <= 1
 0 <= x(112)#112 <= 1
 0 <= x(113)#113 <= 1
 0 <= x(114)#114 <= 1
 0 <= x(115)#115 <= 1
 0 <= x(116)#116 <= 1
 0 <= x(117)#117 <= 1
 0 <= x(118)#118 <= 1
 0 <= x(119)#119 <= 1
 0 <= x(120)#120 <= 1
 0 <= x(121)#121 <= 1
 0 <= x(122)#122 <= 1
 0 <= x(123)#123 <= 1
 0 <= x(124)#124 <= 1
 0 <= x(125)#125 <= 1
 0 <= x(126)#126 <= 1
 0 <= x(127)#127 <= 1
 0 <= x(128)#128 <= 1
 0 <= x(129)#129 <= 1
 0 <= x(130)#130 <= 1
 0 <= x(131)#131 <= 1
 0 <= x(132)#132 <= 1
 0 <= x(133)#133 <= 1
 0 <= x(134)#134 <= 1
 0 <= x(135)#135 <= 1
 0 <= x(136)#136 <= 1
 0 <= x(137)#137 <= 1
 0 <= x(138)#138 <= 1
 0 <= x(139)#139 <= 1
 0 <= x(140)#140 <= 1
 0 <= x(141)#141 <= 1
 0 <= x(142)#142 <= 1
 0 <= x(143)#143 <= 1
 0 <= x(144)#144 <= 1
 0 <= x(145)#145 <= 1
 0 <= x(146)#146 <= 1
 0 <= x(147)#147 <= 1
 0 <= x(148)#148 <= 1
 0 <= x(149)#149 <= 1
 0 <= x(150)#150 <= 1
 0 <= x(151)#151 <= 1
 0 <= x(152)#152 <= 1
 0 <= x(153)#153 <= 1
 0 <= x(154)#154 <= 1
 0 <= x(155)#155 <= 1
 0 <= x(156)#156 <= 1
 0 <= x(157)#157 <= 1
 0 <= x(158)#158 <= 1
 0 <= x(159)#159 <= 1
 0 <= x(160)#160 <= 1
 0 <= x(161)#161 <= 1
 0 <= x(162)#162 <= 1
 0 <= x(163)#163 <= 1
 0 <= x(164)#164 <= 1
 0 <= x(165)#165 <= 1
 0 <= x(166)#166 <= 1
 0 <= x(167)#167 <= 1
 0 <= x(168)#168 <= 1
 0 <= x(169)#169 <= 1
 0 <= x(170)#170 <= 1
 0 <= x(171)#171 <= 1
 0 <= x(172)#172 <= 1
 0 <= x(173)#173 <= 1
 0 <= x(174)#174 <= 1
 0 <= x(175)#175 <= 1
 0 <= x(176)#176 <= 1
 0 <= x(177)#177 <= 1
 0 <= x(178)#178 <= 1
 0 <= x(179)#179 <= 1
 0 <= x(180)#180 <= 1
 0 <= x(181)#181 <= 1
 0 <= x(182)#182 <= 1
 0 <= x(183)#183 <= 1
 0 <= x(184)#184 <= 1
 0 <= x(185)#185 <= 1
 0 <= x(186)#186 <= 1
 0 <= x(187)#187 <= 1
 0 <= x(188)#188 <= 1
 0 <= x(189)#189 <= 1
 0 <= x(190)#190 <= 1
 0 <= x(191)#191 <= 1
 0 <= x(192)#192 <= 1
 0 <= x(193)#193 <= 1
 0 <= x(194)#194 <= 1
 0 <= x(195)#195 <= 1
 0 <= x(196)#196 <= 1
 0 <= x(197)#197 <= 1
 0 <= x(198)#198 <= 1
 0 <= x(199)#199 <= 1
 0 <= x(200)#200 <= 1
 0 <= x(201)#201 <= 1
 0 <= x(202)#202 <= 1
 0 <= x(203)#203 <= 1
 0 <= x(204)#204 <= 1
 0 <= x(205)#205 <= 1
 0 <= x(206)#206 <= 1
 0 <= x(207)#207 <= 1
 0 <= x(208)#208 <= 1
 0 <= x(209)#209 <= 1
 0 <= x(210)#210 <= 1
 0 <= x(211)#211 <= 1
 0 <= x(212)#212 <= 1
 0 <= x(213)#213 <= 1
 0 <= x(214)#214 <= 1
 0 <= x(215)#215 <= 1
 0 <= x(216)#216 <= 1
 0 <= x(217)#217 <= 1
 0 <= x(218)#218 <= 1
 0 <= x(219)#219 <= 1
 0 <= x(220)#220 <= 1
 0 <= x(221)#221 <= 1
 0 <= x(222)#222 <= 1
 0 <= x(223)#223 <= 1
 0 <= x(224)#224 <= 1
 0 <= x(225)#225 <= 1
 0 <= x(226)#226 <= 1
 0 <= x(227)#227 <= 1
 0 <= x(228)#228 <= 1
 0 <= x(229)#229 <= 1
 0 <= x(230)#230 <= 1
 0 <= x(231)#231 <= 1
 0 <= x(232)#232 <= 1
 0 <= x(233)#233 <= 1
 0 <= x(234)#234 <= 1
 0 <= x(235)#235 <= 1
 0 <= x(236)#236 <= 1
 0 <= x(237)#237 <= 1
 0 <= x(238)#238 <= 1
 0 <= x(239)#239 <= 1
 0 <= x(240)#240 <= 1
 0 <= x(241)#241 <= 1
 0 <= x(242)#242 <= 1
 0 <= x(243)#243 <= 1
 0 <= x(244)#244 <= 1
 0 <= x(245)#245 <= 1
 0 <= x(246)#246 <= 1
 0 <= x(247)#247 <= 1
 0 <= x(248)#248 <= 1
 0 <= x(249)#249 <= 1
Generals
 x(0)#0  x(1)#1  x(2)#2  x(3)#3  x(4)#4  x(5)#5  x(6)#6  x(7)#7  x(8)#8 
 x(9)#9  x(10)#10  x(11)#11  x(12)#12  x(13)#13  x(14)#14  x(15)#15  x(16)#16 
 x(17)#17  x(18)#18  x(19)#19  x(20)#20  x(21)#21  x(22)#22  x(23)#23 
 x(24)#24  x(25)#25  x(26)#26  x(27)#27  x(28)#28  x(29)#29  x(30)#30 
 x(31)#31  x(32)#32  x(33)#33  x(34)#34  x(35)#35  x(36)#36  x(37)#37 
 x(38)#38  x(39)#39  x(40)#40  x(41)#41  x(42)#42  x(43)#43  x(44)#44 
 x(45)#45  x(46)#46  x(47)#47  x(48)#48  x(49)#49  x(50)#50  x(51)#51 
 x(52)#52  x(53)#53  x(54)#54  x(55)#55  x(56)#56  x(57)#57  x(58)#58 
 x(59)#59  x(60)#60  x(61)#61  x(62)#62  x(63)#63  x(64)#64  x(65)#65 
 x(66)#66  x(67)#67  x(68)#68  x(69)#69  x(70)#70  x(71)#71  x(72)#72 
 x(73)#73  x(74)#74  x(75)#75  x(76)#76  x(77)#77  x(78)#78  x(79)#79 
 x(80)#80  x(81)#81  x(82)#82  x(83)#83  x(84)#84  x(85)#85  x(86)#86 
 x(87)#87  x(88)#88  x(89)#89  x(90)#90  x(91)#91  x(92)#92  x(93)#93 
 x(94)#94  x(95)#95  x(96)#96  x(97)#97  x(98)#98  x(99)#99  x(100)#100 
 x(101)#101  x(102)#102  x(103)#103  x(104)#104  x(105)#105  x(106)#106 
 x(107)#107  x(108)#108  x(109)#109  x(110)#110  x(111)#111  x(112)#112 
 x(113)#113  x(114)#114  x(115)#115  x(116)#116  x(117)#117  x(118)#118 
 x(119)#119  x(120)#120  x(121)#121  x(122)#122  x(123)#123  x(124)#124 
 x(125)#125  x(126)#126  x(127)#127  x(128)#128  x(129)#129  x(130)#130 
 x(131)#131  x(132)#132  x(133)#133  x(134)#134  x(135)#135  x(136)#136 
 x(137)#137  x(138)#138  x(139)#139  x(140)#140  x(141)#141  x(142)#142 
 x(143)#143  x(144)#144  x(145)#145  x(146)#146  x(147)#147  x(148)#148 
 x(149)#149  x(150)#150  x(151)#151  x(152)#152  x(153)#153  x(154)#154 
 x(155)#155  x(156)#156  x(157)#157  x(158)#158  x(159)#159  x(160)#160 
 x(161)#161  x(162)#162  x(163)#163  x(164)#164  x(165)#165  x(166)#166 
 x(167)#167  x(168)#168  x(169)#169  x(170)#170  x(171)#171  x(172)#172 
 x(173)#173  x(174)#174  x(175)#175  x(176)#176  x(177)#177  x(178)#178 
 x(179)#179  x(180)#180  x(181)#181  x(182)#182  x(183)#183  x(184)#184 
 x(185)#185  x(186)#186  x(187)#187  x(188)#188  x(189)#189  x(190)#190 
 x(191)#191  x(192)#192  x(193)#193  x(194)#194  x(195)#195  x(196)#196 
 x(197)#197  x(198)#198  x(199)#199  x(200)#200  x(201)#201  x(202)#202 
 x(203)#203  x(204)#204  x(205)#205  x(206)#206  x(207)#207  x(208)#208 
 x(209)#209  x(210)#210  x(211)#211  x(212)#212  x(213)#213  x(214)#214 
 x(215)#215  x(216)#216  x(217)#217  x(218)#218  x(219)#219  x(220)#220 
 x(221)#221  x(222)#222  x(223)#223  x(224)#224  x(225)#225  x(226)#226 
 x(227)#227  x(228)#228  x(229)#229  x(230)#230  x(231)#231  x(232)#232 
 x(233)#233  x(234)#234  x(235)#235  x(236)#236  x(237)#237  x(238)#238 
 x(239)#239  x(240)#240  x(241)#241  x(242)#242  x(243)#243  x(244)#244 
 x(245)#245  x(246)#246  x(247)#247  x(248)#248  x(249)#249 
End
